SCIP version 5.0.0 [precision: 8 byte] [memory: block] [mode: optimized] [LP solver: NONE] [GitHash: 3bbd232]
Copyright (C) 2002-2017 Konrad-Zuse-Zentrum fuer Informationstechnik Berlin (ZIB)

External codes: 
  Readline 6.3         GNU library for command line editing (gnu.org/s/readline)
  CppAD 20160000.1     Algorithmic Differentiation of C++ algorithms developed by B. Bell (www.coin-or.org/CppAD)
  ZLIB 1.2.8           General purpose compression library by J. Gailly and M. Adler (zlib.net)
  GMP 6.1.0            GNU Multiple Precision Arithmetic Library developed by T. Granlund (gmplib.org)

user parameter file <scip.set> not found - using default parameters

read problem <../../data/parkin.logreg>
============

File name	:	../../data/parkin.logreg
Problem name 	:	parkin
Number of data	:	195
Number of var	:	22
The given data has linear independence

[dim=1] time: 0.027818
[dim=2] time: 0.047248
[dim=3] time: 0.06613
[dim=4] time: 0.080826
[dim=5] time: 0.09389
[dim=6] time: 0.106755
[dim=7] Time of forward = 0.119327sec.
AIC: 123.619
k: 6

[dim=22] time: 0.070667
[dim=21] time: 0.293781
[dim=20] time: 0.328488
[dim=19] time: 0.355173
[dim=18] time: 0.366759
[dim=17] time: 0.375223
[dim=16] time: 0.385181
[dim=15] time: 0.396518
[dim=14] time: 0.405196
[dim=13] time: 0.412288
[dim=12] time: 0.420532
[dim=11] time: 0.42608
[dim=10] time: 0.432589
[dim=9] time: 0.438916
[dim=8] Time of backward = 0.444108sec.
AIC: 113.957
k: 9
